
50
12705

14391 683
1938 92
13022 618
17742 842
17594 835
10872 516
13317 632
7796 370
11146 529
2275 108
14391 683
12663 601
5942 282
7986 379
15529 737
9355 444
20228 960
20481 972
17678 839
1938 92
1601 76
6089 289
7627 362
14855 705
17425 827
11863 563
13485 640
12094 574
737 35
11104 527
4509 214
8786 417
189 9
13822 656
19195 911
1453 69
12242 581
505 24
7417 352
3371 160
18142 861
15360 729
18900 897
4593 218
15150 719
14749 700
10767 511
19322 917
13169 625
5963 283
